p cnf 19 7
a 1 0
e 2 0
a 3 4 0
e 5 6 7 0
a 8 9 10 0
e 11 12 13 0
a 14 15 16 0
e 17 0
a 18 0
e 19 0
-11 4 -10 -5 -1 0
-6 9 -4 -18 -19 0
-10 -9 12 11 -8 0
-4 -13 -17 -19 9 0
-16 8 0
8 -17 10 -15 0
-2 15 18 5 -3 0
